Minimize
  - 27 y_0 - 46 y_1 - 63 y_2 - 72 y_3 - 77 y_4 - 86 y_5 - 94 y_6 - 32 y_7
   - 74 y_8 - 59 y_9 - 96 y_10 - 64 y_11 - 91 y_12 - 3 y_13 - 113 y_14
   - 102 y_15 - 51 y_16 - 54 y_17 - 23 y_18 - 67 y_19 - 76 y_20 - 52 y_21
   - 76 y_22 - 92 y_23 - 82 y_24 - 34 y_25 - 65 y_26 - 40 y_27 - 55 y_28
   - 40 y_29 - 23 y_30 - 67 y_31 - 61 y_32 - 85 y_33 - 23 y_34 - 51 y_35
   - 82 y_36 - 39 y_37 - 86 y_38 - 38 y_39 - 88 y_40 - 72 y_41 - 26 y_42
   - 98 y_43 - 86 y_44 - 97 y_45 - 65 y_46 - 62 y_47 - 112 y_48 - 77 y_49
   - 97 y_50 - 55 y_51 - 22 y_52 - 83 y_53 - 99 y_54 - 89 y_55 - 85 y_56
   - 130 y_57 - 113 y_58 - 127 y_59 - 125 y_60 - 106 y_61 - 92 y_62
   - 57 y_63 - 8 y_64 - 86 y_65 - 91 y_66 - 47 y_67 - 120 y_68 - 64 y_69
   - 63 y_70 - 92 y_71 - 48 y_72 - 58 y_73 - 59 y_75 - 62 y_76 - 90 y_77
   - 47 y_78 - 41 y_79 - 60 y_80 - 67 y_81 - 130 y_82 - 59 y_83 - 101 y_84
   - 111 y_85 - 26 y_86 - 71 y_87 - 100 y_88 - 122 y_89 - 13 y_90
   - 104 y_91 - 89 y_92 - 48 y_93 - 53 y_94 - 96 y_95 - 8 y_96 - 99 y_97
   - 97 y_98 - 58 y_99 + 7012 Constant
Subject To
 c_0: y_50 = 1
 c_1_0: y_0 >= 1
 c_1_1: y_1 + y_72 >= 1
 c_1_2: y_2 >= 1
 c_1_3: y_3 + y_87 >= 1
 c_1_4: y_4 >= 1
 c_1_5: y_5 + y_55 + y_65 >= 1
 c_1_6: y_6 >= 1
 c_1_7: y_7 >= 1
 c_1_8: y_8 + y_41 + y_49 >= 1
 c_1_9: y_9 + y_11 + y_70 + y_73 + y_75 + y_80 >= 1
 c_1_10: y_10 >= 1
 c_1_11: y_9 + y_11 + y_70 >= 1
 c_1_12: y_12 + y_71 >= 1
 c_1_13: y_13 + y_74 >= 1
 c_1_14: y_14 + y_58 >= 1
 c_1_15: y_15 + y_45 >= 1
 c_1_16: y_16 + y_51 + y_67 + y_93 >= 1
 c_1_17: y_17 + y_94 >= 1
 c_1_18: y_18 + y_34 + y_42 >= 1
 c_1_19: y_19 + y_26 + y_47 >= 1
 c_1_20: y_20 >= 1
 c_1_21: y_21 >= 1
 c_1_22: y_22 >= 1
 c_1_23: y_23 + y_95 >= 1
 c_1_24: y_24 >= 1
 c_1_25: y_25 >= 1
 c_1_26: y_19 + y_26 + y_47 >= 1
 c_1_27: y_27 + y_79 >= 1
 c_1_28: y_28 >= 1
 c_1_29: y_29 >= 1
 c_1_30: y_30 + y_34 >= 1
 c_1_31: y_31 >= 1
 c_1_32: y_32 + y_83 >= 1
 c_1_33: y_33 + y_56 >= 1
 c_1_34: y_18 + y_30 + y_34 >= 1
 c_1_35: y_35 >= 1
 c_1_36: y_36 >= 1
 c_1_37: y_37 + y_39 >= 1
 c_1_38: y_38 + y_44 >= 1
 c_1_39: y_37 + y_39 >= 1
 c_1_40: y_40 + y_77 >= 1
 c_1_41: y_8 + y_41 >= 1
 c_1_42: y_18 + y_42 + y_86 >= 1
 c_1_43: y_43 + y_88 >= 1
 c_1_44: y_38 + y_44 >= 1
 c_1_45: y_15 + y_45 >= 1
 c_1_46: y_46 + y_76 >= 1
 c_1_47: y_19 + y_26 + y_47 + y_99 >= 1
 c_1_48: y_48 >= 1
 c_1_49: y_8 + y_49 >= 1
 c_1_50: y_50 >= 1
 c_1_51: y_16 + y_51 + y_73 + y_75 >= 1
 c_1_52: y_52 >= 1
 c_1_53: y_53 >= 1
 c_1_54: y_54 >= 1
 c_1_55: y_5 + y_55 + y_65 >= 1
 c_1_56: y_33 + y_56 >= 1
 c_1_57: y_57 + y_59 + y_82 >= 1
 c_1_58: y_14 + y_58 >= 1
 c_1_59: y_57 + y_59 + y_82 >= 1
 c_1_60: y_60 >= 1
 c_1_61: y_61 >= 1
 c_1_62: y_62 >= 1
 c_1_63: y_63 >= 1
 c_1_64: y_64 + y_90 + y_96 >= 1
 c_1_65: y_5 + y_55 + y_65 >= 1
 c_1_66: y_66 >= 1
 c_1_67: y_16 + y_67 + y_93 >= 1
 c_1_68: y_68 >= 1
 c_1_69: y_69 + y_81 >= 1
 c_1_70: y_9 + y_11 + y_70 + y_80 >= 1
 c_1_71: y_12 + y_71 >= 1
 c_1_72: y_1 + y_72 >= 1
 c_1_73: y_9 + y_51 + y_73 + y_75 + y_80 >= 1
 c_1_74: y_13 + y_74 >= 1
 c_1_75: y_9 + y_51 + y_73 + y_75 >= 1
 c_1_76: y_46 + y_76 >= 1
 c_1_77: y_40 + y_77 >= 1
 c_1_78: y_78 >= 1
 c_1_79: y_27 + y_79 >= 1
 c_1_80: y_9 + y_70 + y_73 + y_80 >= 1
 c_1_81: y_69 + y_81 >= 1
 c_1_82: y_57 + y_59 + y_82 >= 1
 c_1_83: y_32 + y_83 + y_99 >= 1
 c_1_84: y_84 >= 1
 c_1_85: y_85 >= 1
 c_1_86: y_42 + y_86 >= 1
 c_1_87: y_3 + y_87 >= 1
 c_1_88: y_43 + y_88 >= 1
 c_1_89: y_89 >= 1
 c_1_90: y_64 + y_90 + y_96 >= 1
 c_1_91: y_91 >= 1
 c_1_92: y_92 >= 1
 c_1_93: y_16 + y_67 + y_93 >= 1
 c_1_94: y_17 + y_94 >= 1
 c_1_95: y_23 + y_95 >= 1
 c_1_96: y_64 + y_90 + y_96 >= 1
 c_1_97: y_97 >= 1
 c_1_98: y_98 >= 1
 c_1_99: y_47 + y_83 + y_99 >= 1
Bounds
 Constant = 1
Binaries
 y_0 y_1 y_2 y_3 y_4 y_5 y_6 y_7 y_8 y_9 y_10 y_11 y_12 y_13 y_14 y_15 y_16
 y_17 y_18 y_19 y_20 y_21 y_22 y_23 y_24 y_25 y_26 y_27 y_28 y_29 y_30 y_31
 y_32 y_33 y_34 y_35 y_36 y_37 y_38 y_39 y_40 y_41 y_42 y_43 y_44 y_45 y_46
 y_47 y_48 y_49 y_50 y_51 y_52 y_53 y_54 y_55 y_56 y_57 y_58 y_59 y_60 y_61
 y_62 y_63 y_64 y_65 y_66 y_67 y_68 y_69 y_70 y_71 y_72 y_73 y_74 y_75 y_76
 y_77 y_78 y_79 y_80 y_81 y_82 y_83 y_84 y_85 y_86 y_87 y_88 y_89 y_90 y_91
 y_92 y_93 y_94 y_95 y_96 y_97 y_98 y_99
End
